\ LP format - for model browsing. Use MPS format to capture full model detail.
Maximize
  6 x_1 + 4 x_2 + x_3 + x_4 + 10 x_5 + 4 x_6 + 9 x_7 + 3 x_8 + 3 x_9
   + 5 x_10
Subject To
 C_1: 3 x_1 + 9 x_5 + 2 x_6 + 10 x_7 + 4 x_8 <= 14
 C_2: 8 x_1 + 9 x_2 + 8 x_3 + 4 x_8 + 2 x_9 <= 15
 C_3: 8 x_1 + 9 x_3 + 3 x_4 + 6 x_6 + 9 x_9 + 10 x_10 <= 22
 C_4: 6 x_2 + 3 x_4 + 3 x_5 + 4 x_6 + 6 x_7 + x_10 <= 11
 C_5: 10 x_1 + 10 x_2 + 7 x_4 + 4 x_8 + 3 x_10 <= 17
 C_6: 9 x_1 + 6 x_2 + 4 x_4 + 10 x_6 + 10 x_9 <= 19
 C_7: 10 x_1 + 3 x_2 + 8 x_3 + 5 x_4 + 9 x_5 + 4 x_7 + 10 x_10 <= 24
 C_8: 6 x_2 + x_3 + 4 x_4 + x_8 + 3 x_9 + 2 x_10 <= 8
 C_9: 4 x_1 + 5 x_2 + 3 x_4 + 8 x_6 + 6 x_9 + 10 x_10 <= 18
 C_10: 6 x_3 + 2 x_4 + 8 x_5 + 6 x_6 + 10 x_8 + x_9 <= 16
Bounds
Binaries
 x_1 x_2 x_3 x_4 x_5 x_6 x_7 x_8 x_9 x_10
End
